285 5
10 10 10 10 10 

0 0 0 0 0 0 3 2 14 26 
0 0 0 0 0 0 4 3 4 5 8 
4 0 1 0 0 0 4 12 11 10 7 
7 0 5 0 0 0 4 12 11 9 6 
9 0 2 0 0 0 3 11 9 6 
9 0 1 0 0 0 1 10 
10 0 2 0 0 0 1 9 
5 0 5 0 0 0 1 9 
6 0 2 0 0 0 1 13 
7 0 2 0 0 0 1 13 
5 0 2 0 0 0 2 13 167 
1 0 3 0 0 0 1 13 
0 0 0 0 0 0 1 38 
0 0 0 0 0 0 4 15 16 23 24 
6 0 0 1 0 0 4 22 18 17 35 
4 0 0 4 0 0 2 19 17 
1 0 0 3 0 0 2 21 20 
8 0 0 4 0 0 1 19 
7 0 0 2 0 0 1 25 
8 0 0 1 0 0 1 25 
2 0 0 3 0 0 1 25 
7 0 0 2 0 0 1 25 
3 0 0 2 0 0 1 25 
8 0 0 3 0 0 1 25 
0 0 0 0 0 0 1 38 
0 0 0 0 0 0 3 27 28 32 
8 1 0 0 0 0 3 31 30 29 
6 2 0 0 0 0 2 29 220 
3 1 0 0 0 0 4 36 35 34 33 
2 2 0 0 0 0 4 36 35 34 33 
5 1 0 0 0 0 4 36 35 34 33 
4 4 0 0 0 0 1 33 
3 4 0 0 0 0 1 37 
6 5 0 0 0 0 1 37 
2 1 0 0 0 0 1 37 
1 4 0 0 0 0 1 37 
0 0 0 0 0 0 1 38 
0 0 0 0 0 0 5 39 51 63 75 87 
0 0 0 0 0 0 8 40 43 44 45 46 47 48 49 
9 0 0 0 0 1 1 41 
8 0 0 0 0 3 1 42 
6 0 0 0 0 3 1 50 
6 0 0 0 0 3 2 50 95 
7 0 0 0 0 3 1 50 
9 0 0 0 0 3 1 50 
2 0 0 0 0 3 1 50 
9 0 0 0 0 4 1 50 
9 0 0 0 0 1 1 50 
4 0 0 0 0 1 1 50 
0 0 0 0 0 0 1 99 
0 0 0 0 0 0 6 52 53 54 55 57 58 
2 0 0 0 0 1 3 61 60 59 
3 0 0 0 0 2 3 61 60 59 
8 0 0 0 0 3 2 61 56 
4 0 0 0 0 1 1 56 
2 0 0 0 0 1 1 59 
10 0 0 0 0 4 1 60 
4 0 0 0 0 3 1 59 
7 0 0 0 0 3 1 62 
6 0 0 0 0 2 1 62 
10 0 0 0 0 5 1 62 
0 0 0 0 0 0 1 99 
0 0 0 0 0 0 3 64 65 66 
3 0 0 0 1 0 4 73 72 68 67 
10 0 0 0 2 0 5 73 72 71 70 68 
5 0 0 0 3 0 2 69 67 
4 0 0 0 3 0 2 71 70 
1 0 0 0 1 0 1 69 
4 0 0 0 2 0 1 74 
6 0 0 0 2 0 1 74 
7 0 0 0 4 0 1 74 
4 0 0 0 2 0 1 74 
6 0 0 0 5 0 1 74 
0 0 0 0 0 0 1 99 
0 0 0 0 0 0 3 76 77 80 
10 0 0 0 0 1 4 85 81 79 78 
1 0 0 0 0 2 3 84 81 78 
7 0 0 0 0 3 2 83 82 
1 0 0 0 0 5 2 84 83 
10 0 0 0 0 2 1 81 
5 0 0 0 0 2 1 82 
2 0 0 0 0 2 1 86 
1 0 0 0 0 2 1 86 
6 0 0 0 0 4 1 86 
8 0 0 0 0 2 1 86 
0 0 0 0 0 0 1 99 
0 0 0 0 0 0 5 88 90 91 92 97 
3 0 1 0 0 0 1 89 
7 0 3 0 0 0 3 96 95 93 
4 0 5 0 0 0 1 94 
2 0 3 0 0 0 1 94 
8 0 3 0 0 0 1 93 
5 0 1 0 0 0 1 98 
5 0 2 0 0 0 1 98 
4 0 2 0 0 0 1 98 
9 0 2 0 0 0 1 98 
2 0 3 0 0 0 1 98 
0 0 0 0 0 0 1 99 
0 0 0 0 0 0 5 100 122 134 156 178 
0 0 0 0 0 0 9 101 102 103 104 105 107 108 109 111 
10 0 1 0 0 1 2 114 106 
7 0 1 0 0 5 2 114 106 
2 0 2 0 0 1 3 120 114 110 
3 0 4 0 0 3 1 106 
4 0 1 0 0 5 5 120 119 115 114 113 
3 0 2 0 0 1 4 120 119 115 112 
2 0 1 0 0 2 4 120 119 115 112 
3 0 2 0 0 2 4 120 115 114 112 
10 0 3 0 0 3 4 120 119 118 112 
7 0 4 0 0 2 3 119 118 112 
10 0 3 0 0 2 2 119 113 
5 0 3 0 0 1 1 113 
1 0 2 0 0 1 2 117 116 
9 0 2 0 0 3 2 118 116 
9 0 3 0 0 3 1 118 
3 0 3 0 0 3 1 121 
10 0 4 0 0 2 1 121 
10 0 3 0 0 3 1 121 
10 0 3 0 0 4 1 121 
1 0 3 0 0 3 1 121 
0 0 0 0 0 0 1 248 
0 0 0 0 0 0 8 123 125 127 128 129 130 131 132 
1 0 0 0 0 1 1 124 
9 0 0 0 0 4 1 126 
9 0 0 0 0 2 1 126 
10 0 0 0 0 2 1 133 
10 0 0 0 0 4 1 133 
6 0 0 0 0 3 1 133 
7 0 0 0 0 3 1 133 
9 0 0 0 0 2 1 133 
9 0 0 0 0 3 1 133 
9 0 0 0 0 1 1 133 
0 0 0 0 0 0 4 200 212 224 236 
0 0 0 0 0 0 15 135 141 142 143 144 145 146 147 148 149 150 151 152 153 154 
6 0 0 0 1 1 1 136 
9 0 0 0 3 2 2 140 137 
9 0 0 0 3 3 1 138 
9 0 0 0 1 2 1 139 
7 0 0 0 5 3 1 155 
9 0 0 0 2 3 1 155 
9 0 0 0 5 3 1 155 
10 0 0 0 4 2 1 155 
3 0 0 0 1 2 1 155 
3 0 0 0 3 2 1 155 
8 0 0 0 3 4 1 155 
7 0 0 0 1 3 1 155 
4 0 0 0 1 3 1 155 
7 0 0 0 3 2 1 155 
5 0 0 0 4 3 1 155 
4 0 0 0 3 2 1 155 
4 0 0 0 2 1 1 155 
5 0 0 0 2 3 1 155 
1 0 0 0 2 3 1 155 
8 0 0 0 1 3 1 155 
0 0 0 0 0 0 1 248 
0 0 0 0 0 0 6 157 159 160 163 164 167 
7 1 0 1 0 0 2 168 158 
3 1 0 3 0 0 3 176 165 161 
8 2 0 3 0 0 2 168 161 
10 3 0 1 0 0 2 169 162 
10 2 0 2 0 0 4 175 172 170 166 
3 4 0 5 0 0 4 176 175 173 165 
3 2 0 2 0 0 4 174 172 171 168 
9 3 0 2 0 0 2 169 165 
9 3 0 6 0 0 3 172 171 170 
3 3 0 3 0 0 3 174 173 171 
1 5 0 2 0 0 2 176 170 
9 2 0 1 0 0 1 169 
6 2 0 3 0 0 1 170 
1 3 0 2 0 0 1 177 
4 1 0 3 0 0 1 177 
9 2 0 2 0 0 1 177 
5 3 0 1 0 0 1 177 
9 3 0 3 0 0 1 177 
8 3 0 3 0 0 1 177 
7 2 0 2 0 0 1 177 
0 0 0 0 0 0 1 248 
0 0 0 0 0 0 6 179 180 181 183 185 186 
3 1 0 0 1 0 3 198 190 182 
1 5 0 0 4 0 3 198 188 184 
6 1 0 0 3 0 4 198 191 190 187 
9 2 0 0 1 0 4 197 193 188 187 
2 3 0 0 3 0 4 197 193 189 188 
3 4 0 0 1 0 5 197 196 195 193 190 
3 3 0 0 2 0 5 197 196 195 193 190 
1 2 0 0 2 0 3 198 190 187 
3 3 0 0 3 0 3 196 195 194 
1 2 0 0 5 0 2 196 192 
2 1 0 0 2 0 2 195 194 
7 2 0 0 2 0 1 192 
8 4 0 0 1 0 1 193 
9 2 0 0 4 0 1 194 
10 1 0 0 4 0 1 194 
4 2 0 0 2 0 1 199 
9 1 0 0 2 0 1 199 
1 2 0 0 4 0 1 199 
4 3 0 0 2 0 1 199 
5 6 0 0 2 0 1 199 
0 0 0 0 0 0 1 248 
0 0 0 0 0 0 5 201 202 204 209 210 
7 1 0 0 0 0 3 208 207 205 
8 1 0 0 0 0 2 206 203 
4 2 0 0 0 0 1 205 
9 4 0 0 0 0 1 205 
6 4 0 0 0 0 1 211 
4 3 0 0 0 0 1 211 
9 5 0 0 0 0 1 211 
6 3 0 0 0 0 1 211 
3 1 0 0 0 0 1 211 
10 1 0 0 0 0 1 211 
0 0 0 0 0 0 1 248 
0 0 0 0 0 0 3 213 214 215 
5 0 0 1 0 0 4 222 221 217 216 
8 0 0 4 0 0 5 222 221 219 218 217 
8 0 0 3 0 0 2 217 216 
5 0 0 1 0 0 2 219 218 
3 0 0 3 0 0 1 220 
8 0 0 2 0 0 1 223 
2 0 0 3 0 0 1 223 
1 0 0 3 0 0 1 223 
3 0 0 1 0 0 1 223 
3 0 0 4 0 0 1 223 
0 0 0 0 0 0 1 248 
0 0 0 0 0 0 5 225 226 229 230 234 
1 0 0 0 0 1 3 233 228 227 
7 0 0 0 0 2 2 232 227 
10 0 0 0 0 2 1 231 
4 0 0 0 0 1 1 231 
9 0 0 0 0 5 1 232 
10 0 0 0 0 1 1 231 
2 0 0 0 0 4 1 235 
7 0 0 0 0 3 1 235 
6 0 0 0 0 3 1 235 
7 0 0 0 0 3 1 235 
0 0 0 0 0 0 1 248 
0 0 0 0 0 0 5 237 238 239 241 242 
10 0 0 0 1 0 2 246 240 
8 0 0 0 2 0 2 246 240 
8 0 0 0 2 0 2 246 240 
5 0 0 0 5 0 3 245 244 243 
1 0 0 0 2 0 3 245 244 243 
3 0 0 0 4 0 3 245 244 243 
4 0 0 0 2 0 1 247 
6 0 0 0 2 0 1 247 
6 0 0 0 1 0 1 247 
2 0 0 0 4 0 1 247 
0 0 0 0 0 0 1 248 
0 0 0 0 0 0 3 249 261 273 
0 0 0 0 0 0 6 250 251 253 257 258 259 
9 0 0 0 1 0 2 255 252 
10 0 0 0 3 0 2 256 254 
4 0 0 0 2 0 1 254 
10 0 0 0 3 0 1 255 
5 0 0 0 2 0 1 260 
9 0 0 0 1 0 1 260 
2 0 0 0 2 0 1 260 
5 0 0 0 4 0 1 260 
4 0 0 0 4 0 1 260 
2 0 0 0 3 0 1 260 
0 0 0 0 0 0 1 285 
0 0 0 0 0 0 5 262 264 265 270 271 
4 0 0 0 0 1 3 269 266 263 
7 0 0 0 0 2 1 267 
4 0 0 0 0 3 1 268 
3 0 0 0 0 3 1 266 
1 0 0 0 0 3 1 272 
7 0 0 0 0 1 1 272 
8 0 0 0 0 4 1 272 
1 0 0 0 0 5 1 272 
2 0 0 0 0 2 1 272 
6 0 0 0 0 1 1 272 
0 0 0 0 0 0 1 285 
0 0 0 0 0 0 7 274 275 276 277 279 280 283 
6 1 0 0 0 0 2 282 281 
1 4 0 0 0 0 1 278 
7 2 0 0 0 0 1 278 
1 2 0 0 0 0 1 278 
7 3 0 0 0 0 1 281 
7 4 0 0 0 0 1 281 
4 2 0 0 0 0 1 281 
7 2 0 0 0 0 1 284 
1 4 0 0 0 0 1 284 
2 1 0 0 0 0 1 284 
0 0 0 0 0 0 1 285 
0 0 0 0 0 0 0 
